SPARKNaCl/why3-cvc5/sparknacl-secretbox.adb_67_20_range_check_1.smt2
;; produced by cvc5.drv ;;
(set-logic ALL)
(set-info :smt-lib-version 2.6)
;;; generated by SMT-LIB2 driver
;;; SMT-LIB2 driver: bit-vectors, common part
;;; SMT-LIB2: integer arithmetic
;; "pow2"
(declare-fun pow2 (Int) Int)

(declare-const two_power_size_minus_one Int)

;; "two_power_size_minus_one_val"
(assert (= two_power_size_minus_one (pow2 (- 8 1))))

;; "min"
(define-fun min ((x Int) (y Int)) Int
  (ite (<= x y) x y))

;; "max"
(define-fun max ((x Int) (y Int)) Int
  (ite (<= x y) y x))

;; "Min_r"
(assert (forall ((x Int) (y Int)) (=> (<= y x) (= (min x y) y))))

;; "Max_l"
(assert (forall ((x Int) (y Int)) (=> (<= y x) (= (max x y) x))))

;; "Min_comm"
(assert (forall ((x Int) (y Int)) (= (min x y) (min y x))))

;; "Max_comm"
(assert (forall ((x Int) (y Int)) (= (max x y) (max y x))))

;; "Min_assoc"
(assert
  (forall ((x Int) (y Int) (z Int)) (= (min (min x y) z) (min x (min y z)))))

;; "Max_assoc"
(assert
  (forall ((x Int) (y Int) (z Int)) (= (max (max x y) z) (max x (max y z)))))

(declare-sort tinteger_32B 0)

;; "tinteger_32B'int"
(declare-fun tinteger_32Bqtint (tinteger_32B) Int)

;; "tinteger_32B'axiom"
(assert
  (forall ((i tinteger_32B))
    (and
      (<= (- 2147483648) (tinteger_32Bqtint i))
      (<= (tinteger_32Bqtint i) 2147483647))))

;; "in_range"
(define-fun in_range ((x Int)) Bool
  (and (<= (- 2147483648) x) (<= x 2147483647)))

;; "to_rep"
(define-fun to_rep ((x tinteger_32B)) Int
  (tinteger_32Bqtint x))

;; "of_rep"
(declare-fun of_rep (Int) tinteger_32B)

;; "inversion_axiom"
(assert
  (forall ((x tinteger_32B))
    (! (= (of_rep (to_rep x)) x) :pattern ((to_rep x)) )))

;; "range_axiom"
(assert
  (forall ((x tinteger_32B))
    (! (in_range (to_rep x)) :pattern ((to_rep x)) )))

;; "coerce_axiom"
(assert
  (forall ((x Int))
    (! (=> (in_range x) (= (to_rep (of_rep x)) x)) :pattern ((to_rep
                                                               (of_rep x))) )))

;; "in_range"
(define-fun in_range1 ((x Int)) Bool
  (and (<= 0 x) (<= x 2147483647)))

(declare-sort byte 0)

;; "to_rep"
(declare-fun to_rep1 (byte) (_ BitVec 8))

;; "of_rep"
(declare-fun of_rep1 ((_ BitVec 8)) byte)

;; "inversion_axiom"
(assert
  (forall ((x byte)) (! (= (of_rep1 (to_rep1 x)) x) :pattern ((to_rep1 x)) )))

;; "range_axiom"
(assert true)

;; "coerce_axiom"
(assert
  (forall ((x (_ BitVec 8)))
    (! (= (to_rep1 (of_rep1 x)) x) :pattern ((to_rep1 (of_rep1 x))) )))

(declare-sort map1 0)

;; "has_bounds"
(declare-fun has_bounds (map1
  Int
  Int) Bool)

;; "get"
(declare-fun get (map1
  Int) byte)

;; "slice"
(declare-fun slice (map1
  Int
  Int) map1)

;; "slice_eq"
(assert
  (forall ((a map1) (f Int) (l Int))
    (! (=> (has_bounds a f l) (= (slice a f l) a)) :pattern ((slice a f l)
    (has_bounds a f l)) )))

;; "slice_slice"
(assert
  (forall ((a map1) (f1 Int) (l1 Int) (f2 Int) (l2 Int))
    (! (=>
         (and (<= f1 f2) (<= l2 l1))
         (= (slice (slice a f1 l1) f2 l2) (slice a f2 l2))) :pattern (
    (slice
      (slice a f1 l1)
      f2
      l2)) )))

;; "slice_def"
(assert
  (forall ((a map1) (f Int) (l Int))
    (! (forall ((i Int))
         (! (=> (and (<= f i) (<= i l)) (= (get (slice a f l) i) (get a i))) :pattern (
         (get
           (slice a f l)
           i)) :pattern ((get a i)) )) :pattern ((slice a f l)) )))

;; "slice_has_bounds"
(assert
  (forall ((a map1) (f Int) (l Int))
    (! (has_bounds (slice a f l) f l) :pattern ((has_bounds
                                                  (slice a f l)
                                                  f
                                                  l)) )))

(declare-datatypes ((t 0))
  (((tqtmk (rec__first tinteger_32B)(rec__last tinteger_32B)))))

;; "mk"
(declare-fun mk (Int
  Int) t)

;; "mk_def"
(assert
  (forall ((f Int) (l Int))
    (! (=>
         (in_range f)
         (=>
           (in_range l)
           (and
             (= (to_rep (rec__first (mk f l))) f)
             (= (to_rep (rec__last (mk f l))) l)))) :pattern ((mk f l)) )))

;; "dynamic_property"
(define-fun dynamic_property ((range_first Int) (range_last Int) (low Int) (high Int)) Bool
  (and
    (in_range low)
    (and
      (in_range high)
      (=> (<= low high) (and (in_range1 low) (in_range1 high))))))

(declare-datatypes ((us_t 0))
  (((us_tqtmk (elts map1)(rt t)))))

;; "to_array"
(define-fun to_array ((a us_t)) map1
  (elts a))

;; "of_array"
(define-fun of_array ((a map1) (f Int) (l Int)) us_t
  (us_tqtmk a (mk f l)))

;; "first"
(define-fun first ((a us_t)) Int
  (to_rep (rec__first (rt a))))

;; "last"
(define-fun last ((a us_t)) Int
  (to_rep (rec__last (rt a))))

;; "length"
(define-fun length ((a us_t)) Int
  (ite (<= (first a) (last a)) (+ (- (last a) (first a)) 1) 0))

;; "well_formed"
(define-fun well_formed ((a us_t)) Bool
  (has_bounds
    (elts a)
    (to_rep (rec__first (rt a)))
    (to_rep (rec__last (rt a)))))

;; "equal"
(declare-fun equal (us_t
  us_t) Bool)

;; "equal__function_guard"
(declare-fun equal__function_guard (Bool
  us_t
  us_t) Bool)

(declare-const zero_bytes_32 map1)

(declare-const zero_bytes_16 map1)

(declare-const m__first tinteger_32B)

(declare-const m__last tinteger_32B)

(declare-const c us_t)

(declare-const n map1)

;; "dynamic_invariant"
(define-fun dynamic_invariant ((temp___expr_254 us_t) (temp___is_init_250 Bool) (temp___skip_constant_251 Bool) (temp___do_toplevel_252 Bool) (temp___do_typ_inv_253 Bool)) Bool
  (and
    (=>
      (not (= temp___skip_constant_251 true))
      (dynamic_property
        0
        2147483647
        (first temp___expr_254)
        (last temp___expr_254)))
    (well_formed temp___expr_254)))

;; "sparknacl__zero_bytes_32__aggregate_def"
(declare-fun sparknacl__zero_bytes_32__aggregate_def ((_ BitVec 8)) map1)

;; "sparknacl__zero_bytes_16__aggregate_def"
(declare-fun sparknacl__zero_bytes_16__aggregate_def ((_ BitVec 8)) map1)

;; "zero_bytes_32__def_axiom"
(assert
  (= zero_bytes_32 (let ((temp___174qtunused (sparknacl__zero_bytes_32__aggregate_def
                                               #x00)))
                     (sparknacl__zero_bytes_32__aggregate_def #x00))))

;; "def_axiom"
(assert
  (forall ((temp___170 (_ BitVec 8)))
    (let ((temp___171 (sparknacl__zero_bytes_32__aggregate_def temp___170)))
      (and
        (has_bounds temp___171 0 31)
        (forall ((temp___172 Int))
          (! (=>
               (and (<= 0 temp___172) (<= temp___172 31))
               (= (to_rep1 (get temp___171 temp___172)) temp___170)) :pattern (
          (get
            temp___171
            temp___172)) ))))))

;; "zero_bytes_16__def_axiom"
(assert
  (= zero_bytes_16 (let ((temp___180qtunused (sparknacl__zero_bytes_16__aggregate_def
                                               #x00)))
                     (sparknacl__zero_bytes_16__aggregate_def #x00))))

;; "def_axiom"
(assert
  (forall ((temp___176 (_ BitVec 8)))
    (let ((temp___177 (sparknacl__zero_bytes_16__aggregate_def temp___176)))
      (and
        (has_bounds temp___177 0 15)
        (forall ((temp___178 Int))
          (! (=>
               (and (<= 0 temp___178) (<= temp___178 15))
               (= (to_rep1 (get temp___177 temp___178)) temp___176)) :pattern (
          (get
            temp___177
            temp___178)) ))))))

;; "equal__post_axiom"
(assert
  (forall ((param__x us_t) (param__y us_t))
    (! (=>
         (and
           (and
             (dynamic_invariant param__x true false true true)
             (dynamic_invariant param__y true false true true))
           (and
             (= (first param__x) (first param__y))
             (= (last param__x) (last param__y))))
         (let ((result (equal param__x param__y)))
           (=>
             (equal__function_guard result param__x param__y)
             (=
               (= result true)
               (forall ((i Int))
                 (=>
                   (and (<= (first param__x) i) (<= i (last param__x)))
                   (= (to_rep1 (get (to_array param__x) i)) (to_rep1
                                                              (get
                                                                (to_array
                                                                  param__y)
                                                                i))))))))) :pattern (
    (equal
      param__x
      param__y)) )))

;; Goal "def'vc"
;; File "sparknacl-secretbox.ads", line 27, characters 0-0
(assert
  (not
  (forall ((m map1) (x map1))
    (=>
      (has_bounds zero_bytes_16 0 15)
      (forall ((temp___958 map1))
        (=>
          (and
            (and
              (has_bounds temp___958 0 15)
              (forall ((temp___179 Int))
                (! (=>
                     (and (<= 0 temp___179) (<= temp___179 15))
                     (= (to_rep1 (get temp___958 temp___179)) #x00)) :pattern (
                (get
                  temp___958
                  temp___179)) )))
            (= temp___958 (sparknacl__zero_bytes_16__aggregate_def #x00)))
          (=>
            (= temp___958 zero_bytes_16)
            (=>
              (has_bounds zero_bytes_32 0 31)
              (forall ((temp___963 map1))
                (=>
                  (and
                    (and
                      (has_bounds temp___963 0 31)
                      (forall ((temp___173 Int))
                        (! (=>
                             (and (<= 0 temp___173) (<= temp___173 31))
                             (= (to_rep1 (get temp___963 temp___173)) #x00)) :pattern (
                        (get
                          temp___963
                          temp___173)) )))
                    (= temp___963 (sparknacl__zero_bytes_32__aggregate_def
                                    #x00)))
                  (=>
                    (= temp___963 zero_bytes_32)
                    (=>
                      (and
                        (dynamic_property
                          0
                          2147483647
                          (to_rep m__first)
                          (to_rep m__last))
                        (well_formed
                          (of_array m (to_rep m__first) (to_rep m__last))))
                      (=>
                        (dynamic_invariant c true false true true)
                        (=>
                          (has_bounds n 0 23)
                          (=>
                            (forall ((temp___955 us_t) (temp___954 us_t))
                              (equal__function_guard
                                (equal temp___954 temp___955)
                                temp___954
                                temp___955))
                            (=>
                              (and
                                (and
                                  (and
                                    (and
                                      (= (to_rep m__first) 0)
                                      (= (first c) 0))
                                    (= (to_rep m__last) (last c)))
                                  (<= 32 (length c)))
                                (= (let ((temp___955 (of_array
                                                       zero_bytes_16
                                                       0
                                                       15)))
                                     (let ((temp___954 (of_array
                                                         (slice
                                                           (to_array c)
                                                           0
                                                           15)
                                                         0
                                                         15)))
                                       (equal temp___954 temp___955))) true))
                              (=>
                                (has_bounds x 0 31)
                                (forall ((o Bool))
                                  (=>
                                    (exists ((o1 Bool))
                                      (and
                                        (exists ((o2 Bool))
                                          (and
                                            (exists ((o3 Int))
                                              (and
                                                (= (to_rep m__last) o3)
                                                (exists ((o4 Int))
                                                  (and
                                                    (= (to_rep m__first) o4)
                                                    (exists ((o5 Int))
                                                      (and
                                                        (= (to_rep m__first) o5)
                                                        (ite (= o5 0)
                                                          (= o2 (ite (= 
                                                                  (first
                                                                    c) 0)
                                                                  true
                                                                  false))
                                                          (= o2 false))))))))
                                            (ite (= o2 true)
                                              (exists ((o3 Int))
                                                (and
                                                  (= (to_rep m__last) o3)
                                                  (exists ((o4 Int))
                                                    (and
                                                      (= (to_rep m__first) o4)
                                                      (exists ((o5 Int))
                                                        (and
                                                          (= (to_rep m__last) o5)
                                                          (= o1 (ite (= o5 
                                                                  (last
                                                                    c))
                                                                  true
                                                                  false))))))))
                                              (= o1 false))))
                                        (ite (= o1 true)
                                          (= o (ite (<= 32 (length c))
                                                 true
                                                 false))
                                          (= o false))))
                                    (=>
                                      (= o true)
                                      (=> (<= 0 15) (<= (first c) 0))))))))))))))))))))))

(check-sat)
